(declare-fun bvlambda_17_ ()Bool         )
(declare-fun a135 () (Array (_ BitVec 1) (_ BitVec 9)))
(assert
(let (($e30 (_ bv2 6)))
(let (($e31 (_ bv510 9)))
(let (($e32 (_ bv2 9)))
(let (($e35 (_ bv510 14)))
(let (($e156 (store a135 false      $e31 )))
(let (($e157 (store $e156 bvlambda_17_ $e32 )))
(let (($e170 (select a135 true         )))
(let (($e177 (   extract        $e170)))
(let (($e281 (concat (bvnot $e35)false                )))
(let (($e292 (select $e157 true       )))
(let (($e301 (concat $e30        $e292 )))
(let (($e310      (bvult $e301 $e281)         ))
             (bvand        $e310  $e177)
                                                                                                                                                                                                                                                                                                                                                                                                                                                                                                                                                                                                                                                                                                                                                                                                                                                                                                                                                                                                                                                                                                                                                                                                                                                                                                                                                                                                                                                                                                                                                                                                                                                                                       )        )        )          )                                                                                                       )      )            ))                                                                         )  )))                             )
